# Solution for model r3_t27_m2_1 Batch Number: 4
# Finished Task: 27 / 27
# Makespan: 918.0, Total Distance: 854.0, Total Time: 3.1331
# R O S F Batch
0 0 13 0.0 0.0 -1
1 1 7 0.0 0.0 -1
2 2 29 0.0 0.0 -1
3 1 26 652.0 687.0 1
4 2 25 629.0 651.0 1
5 1 17 384.0 407.0 0
6 0 11 387.0 422.0 0
7 1 12 220.0 255.0 0
8 0 6 354.0 387.0 0
9 1 5 325.0 353.0 0
10 0 8 279.0 304.0 0
11 0 15 422.0 443.0 0
12 1 9 276.0 299.0 0
13 0 10 183.0 220.0 0
14 2 20 745.0 778.0 2
15 0 18 484.0 515.0 0
16 2 -1 870.0 898.0 2
17 1 19 561.0 596.0 0
18 0 22 556.0 593.0 1
19 1 3 624.0 652.0 1
20 2 16 843.0 870.0 2
21 1 -1 894.0 918.0 3
22 0 24 652.0 673.0 2
23 1 21 844.0 868.0 3
24 0 27 719.0 757.0 2
25 2 14 681.0 717.0 1
26 1 23 773.0 804.0 3
27 0 28 781.0 806.0 3
28 0 -1 820.0 855.0 3
29 2 4 558.0 596.0 0
